NAME: line_50_6
TYPE: TSP
COMMENT: line_50_6
DIMENSION: 50
EDGE_WEIGHT_TYPE: EUC_2D
NODE_COORD_SECTION
1 0.0 459.0
2 0.0 494.0
3 0.0 469.0
4 0.0 219.0
5 0.0 479.0
6 0.0 142.0
7 0.0 169.0
8 0.0 431.0
9 0.0 494.0
10 0.0 356.0
11 0.0 324.0
12 0.0 217.0
13 0.0 169.0
14 0.0 293.0
15 0.0 383.0
16 0.0 481.0
17 0.0 490.0
18 0.0 287.0
19 0.0 443.0
20 0.0 67.0
21 0.0 113.0
22 0.0 145.0
23 0.0 163.0
24 0.0 403.0
25 0.0 254.0
26 0.0 257.0
27 0.0 190.0
28 0.0 398.0
29 0.0 426.0
30 0.0 481.0
31 0.0 465.0
32 0.0 6.0
33 0.0 309.0
34 0.0 57.0
35 0.0 149.0
36 0.0 405.0
37 0.0 75.0
38 0.0 202.0
39 0.0 257.0
40 0.0 243.0
41 0.0 175.0
42 0.0 153.0
43 0.0 464.0
44 0.0 176.0
45 0.0 204.0
46 0.0 289.0
47 0.0 242.0
48 0.0 436.0
49 0.0 486.0
50 0.0 104.0
